n = 60;
capacity = 100;
size = [80, 80, 78, 76, 76, 75, 75, 74, 73, 69, 69, 69, 67, 67, 65, 65, 65, 65, 63, 63, 63, 63, 62, 62, 62, 60, 58, 58, 57, 56, 56, 55, 52, 52, 51, 51, 48, 46, 44, 44, 44, 43, 43, 41, 37, 35, 35, 34, 31, 29, 29, 28, 27, 24, 24, 24, 24, 21, 20, 20];
